HUN,8,6,504
4,29,1,29,3,23,5,24,2,25,0,30
1,30,3,25,5,27,4,26,0,22,2,26
3,26,1,22,0,29,5,27,2,21,4,24
4,24,1,23,5,25,2,30,0,23,3,23
4,29,2,27,1,30,0,22,5,22,3,28
2,28,3,29,1,25,5,21,4,24,0,23
5,24,2,22,4,23,0,28,1,23,3,23
4,26,0,28,5,21,1,30,3,28,2,27
